NAME : tour.tour
TIME : 2020-10-25 17:24:09
LENGTH : 926.3222276590305
COMMENT : hello world
DIMENSION : 29
TOUR_SECTION
6
7
24
8
9
23
25
26
20
21
22
10
11
12
13
14
0
1
2
3
4
28
27
15
19
18
16
17
5
EOF
